Geographic Exponential Decay
80 190 183 48 161 120 17 170 34 219 39 180 249 104 119 305 76 221 243 32 245 194 284 131 264 232 317 81 312 289 212 74 67 26 98 152 16 267 176 179 113 171 229 41 61 248 297 201 308 237 101 47 144 151 78 73 296 251 259 294 88 70 121 102 166 146 52 124 185 28 178 318 50 160 90 286 211 309 181 252 234
p edge 320 1341
e 0 302 6.0
e 0 117 5.0
e 0 38 3.0
e 1 66 4.0
e 1 41 99.0
e 2 136 3.0
e 3 135 5.0
e 3 115 3.0
e 4 300 6.0
e 4 260 5.0
e 4 105 5.0
e 5 229 21.0
e 6 67 13.0
e 6 108 5.0
e 7 210 1.0
e 8 76 66.0
e 8 177 12.0
e 8 211 98.0
e 8 213 13.0
e 8 158 6.0
e 9 157 3.0
e 9 238 2.0
e 10 5 3.0
e 10 271 6.0
e 10 272 3.0
e 11 161 2.0
e 11 199 2.0
e 12 164 3.0
e 13 61 11.0
e 14 181 63.0
e 14 138 4.0
e 15 88 64.0
e 16 58 11.0
e 16 271 82.0
e 16 200 1.0
e 16 114 96.0
e 16 175 67.0
e 16 84 26.0
e 16 246 62.0
e 16 281 74.0
e 16 109 94.0
e 16 211 70.0
e 16 262 54.0
e 16 148 49.0
e 16 194 79.0
e 16 186 52.0
e 16 170 68.0
e 16 311 35.0
e 16 204 14.0
e 17 86 39.0
e 17 35 10.0
e 17 146 58.0
e 17 233 54.0
e 17 42 2.0
e 17 19 92.0
e 17 220 2.0
e 17 51 70.0
e 17 155 12.0
e 17 3 35.0
e 17 89 77.0
e 17 253 89.0
e 17 254 98.0
e 17 303 10.0
e 17 209 6.0
e 17 54 31.0
e 17 73 29.0
e 18 258 3.0
e 20 304 8.0
e 20 274 2.0
e 21 102 14.0
e 21 282 4.0
e 22 112 1.0
e 23 212 60.0
e 23 6 3.0
e 24 17 19.0
e 24 122 2.0
e 24 159 1.0
e 25 97 7.0
e 26 235 17.0
e 26 303 25.0
e 26 238 30.0
e 26 74 44.0
e 26 285 4.0
e 26 304 39.0
e 26 206 68.0
e 26 243 68.0
e 26 222 14.0
e 26 42 42.0
e 26 149 86.0
e 26 300 43.0
e 26 254 83.0
e 26 8 69.0
e 26 291 7.0
e 26 220 47.0
e 26 23 75.0
e 27 274 1.0
e 28 147 75.0
e 28 45 2.0
e 28 64 100.0
e 28 216 67.0
e 28 265 46.0
e 28 232 100.0
e 28 24 42.0
e 28 25 67.0
e 28 312 77.0
e 28 89 35.0
e 28 214 68.0
e 28 6 10.0
e 28 141 75.0
e 28 2 13.0
e 28 112 53.0
e 28 65 47.0
e 28 230 1.0
e 29 32 58.0
e 30 20 5.0
e 31 213 2.0
e 31 258 5.0
e 32 163 41.0
e 32 148 47.0
e 32 169 12.0
e 32 16 21.0
e 32 135 88.0
e 32 157 57.0
e 32 92 83.0
e 32 208 89.0
e 32 246 53.0
e 32 233 88.0
e 32 46 91.0
e 32 175 60.0
e 32 12 75.0
e 32 65 67.0
e 32 316 78.0
e 32 176 65.0
e 33 215 2.0
e 33 191 11.0
e 33 66 8.0
e 34 16 85.0
e 34 212 79.0
e 34 205 85.0
e 34 182 28.0
e 34 282 27.0
e 34 264 74.0
e 34 17 54.0
e 34 125 52.0
e 34 134 19.0
e 34 86 50.0
e 34 35 34.0
e 34 96 69.0
e 34 196 32.0
e 34 265 46.0
e 34 14 48.0
e 34 317 38.0
e 34 233 98.0
e 36 214 2.0
e 37 81 41.0
e 38 117 7.0
e 38 51 8.0
e 39 213 76.0
e 39 86 87.0
e 39 268 24.0
e 39 135 71.0
e 39 252 92.0
e 39 188 36.0
e 39 104 49.0
e 39 262 78.0
e 39 40 79.0
e 39 97 2.0
e 39 73 16.0
e 39 98 1.0
e 39 133 90.0
e 39 19 11.0
e 39 99 71.0
e 39 46 15.0
e 39 87 3.0
e 41 92 68.0
e 41 121 76.0
e 41 247 39.0
e 41 63 47.0
e 41 111 70.0
e 41 287 38.0
e 41 271 50.0
e 41 9 51.0
e 41 8 83.0
e 41 176 88.0
e 41 130 9.0
e 41 188 3.0
e 41 151 12.0
e 41 160 82.0
e 41 146 88.0
e 41 181 75.0
e 43 202 21.0
e 43 302 4.0
e 44 75 1.0
e 45 264 99.0
e 47 169 60.0
e 47 274 7.0
e 47 308 4.0
e 47 216 20.0
e 47 215 5.0
e 47 48 49.0
e 47 16 75.0
e 47 52 20.0
e 47 92 37.0
e 47 275 28.0
e 47 317 92.0
e 47 14 20.0
e 47 306 85.0
e 47 161 59.0
e 47 300 47.0
e 47 231 23.0
e 47 257 8.0
e 48 304 13.0
e 48 52 73.0
e 48 216 99.0
e 48 315 56.0
e 48 110 21.0
e 48 254 74.0
e 48 298 2.0
e 48 231 17.0
e 48 165 34.0
e 48 252 20.0
e 48 25 74.0
e 48 205 13.0
e 48 8 52.0
e 48 15 18.0
e 48 300 76.0
e 48 55 89.0
e 49 190 49.0
e 49 150 1.0
e 50 47 65.0
e 50 239 45.0
e 50 183 61.0
e 50 262 76.0
e 50 187 76.0
e 50 149 45.0
e 50 261 33.0
e 50 264 16.0
e 50 55 6.0
e 50 122 74.0
e 50 205 76.0
e 50 96 93.0
e 50 313 50.0
e 50 284 38.0
e 50 268 53.0
e 50 312 13.0
e 50 78 19.0
e 52 226 10.0
e 52 267 22.0
e 52 259 56.0
e 52 78 63.0
e 52 269 65.0
e 52 235 87.0
e 52 159 26.0
e 52 87 28.0
e 52 146 77.0
e 52 247 76.0
e 52 83 11.0
e 52 89 70.0
e 52 261 20.0
e 52 32 79.0
e 52 99 1.0
e 53 174 3.0
e 54 221 28.0
e 56 249 67.0
e 56 307 4.0
e 57 176 94.0
e 58 211 23.0
e 58 170 49.0
e 58 219 34.0
e 58 105 24.0
e 59 248 72.0
e 59 209 8.0
e 59 283 1.0
e 60 142 5.0
e 60 65 5.0
e 61 15 72.0
e 61 241 63.0
e 61 162 67.0
e 61 183 3.0
e 61 131 35.0
e 61 154 74.0
e 61 150 15.0
e 61 109 100.0
e 61 290 69.0
e 61 88 33.0
e 61 254 27.0
e 61 272 44.0
e 61 281 7.0
e 61 28 74.0
e 61 220 15.0
e 61 63 22.0
e 62 270 3.0
e 62 276 6.0
e 64 53 3.0
e 67 186 49.0
e 67 10 43.0
e 67 216 31.0
e 67 181 95.0
e 67 111 34.0
e 67 187 55.0
e 67 192 72.0
e 67 99 5.0
e 67 12 21.0
e 67 182 96.0
e 67 106 79.0
e 67 285 41.0
e 67 246 7.0
e 67 119 44.0
e 67 96 29.0
e 67 160 50.0
e 68 272 1.0
e 69 208 1.0
e 70 182 72.0
e 70 285 99.0
e 70 121 6.0
e 70 54 60.0
e 70 24 58.0
e 70 47 96.0
e 70 201 37.0
e 70 290 64.0
e 70 263 98.0
e 70 89 87.0
e 70 29 85.0
e 70 165 26.0
e 70 155 25.0
e 70 28 36.0
e 70 172 81.0
e 70 169 71.0
e 70 96 53.0
e 71 229 29.0
e 72 192 1.0
e 72 129 2.0
e 73 246 24.0
e 73 33 3.0
e 73 104 82.0
e 73 265 35.0
e 73 284 98.0
e 73 34 83.0
e 73 262 12.0
e 73 74 82.0
e 73 22 86.0
e 73 86 9.0
e 73 160 41.0
e 73 204 68.0
e 73 3 48.0
e 73 7 75.0
e 73 219 89.0
e 74 115 32.0
e 74 214 52.0
e 74 227 62.0
e 74 267 37.0
e 74 257 3.0
e 74 28 47.0
e 74 298 53.0
e 74 15 98.0
e 74 110 37.0
e 74 90 61.0
e 74 127 61.0
e 74 23 27.0
e 74 195 8.0
e 74 14 22.0
e 74 71 14.0
e 76 83 6.0
e 76 306 91.0
e 76 234 26.0
e 76 262 66.0
e 76 102 58.0
e 76 98 34.0
e 76 220 35.0
e 76 183 11.0
e 76 293 19.0
e 76 309 24.0
e 76 289 56.0
e 76 45 18.0
e 76 255 94.0
e 76 103 8.0
e 76 3 31.0
e 76 146 28.0
e 77 213 9.0
e 78 84 42.0
e 78 279 68.0
e 78 97 96.0
e 78 278 62.0
e 78 137 64.0
e 78 264 87.0
e 78 131 24.0
e 78 235 34.0
e 78 205 29.0
e 78 198 9.0
e 78 176 22.0
e 78 138 32.0
e 78 93 86.0
e 78 197 92.0
e 78 163 29.0
e 79 135 11.0
e 79 73 93.0
e 79 4 2.0
e 80 45 1.0
e 81 202 45.0
e 81 5 3.0
e 81 9 26.0
e 81 296 80.0
e 81 206 86.0
e 81 302 63.0
e 81 238 37.0
e 81 44 100.0
e 81 75 37.0
e 81 57 9.0
e 81 125 54.0
e 81 38 70.0
e 81 55 68.0
e 81 214 62.0
e 81 253 11.0
e 81 26 69.0
e 82 90 68.0
e 85 221 91.0
e 85 229 33.0
e 88 246 42.0
e 88 144 45.0
e 88 245 96.0
e 88 49 41.0
e 88 129 99.0
e 88 255 30.0
e 88 215 41.0
e 88 112 37.0
e 88 188 46.0
e 88 306 73.0
e 88 114 44.0
e 88 247 13.0
e 88 4 53.0
e 88 265 64.0
e 88 192 35.0
e 90 175 65.0
e 90 305 18.0
e 90 115 34.0
e 90 87 43.0
e 90 29 81.0
e 90 301 4.0
e 90 156 31.0
e 90 105 45.0
e 90 75 77.0
e 90 217 11.0
e 90 50 61.0
e 90 196 10.0
e 90 103 27.0
e 90 219 15.0
e 90 161 3.0
e 91 237 74.0
e 91 194 38.0
e 93 209 1.0
e 94 169 3.0
e 94 68 5.0
e 95 276 1.0
e 98 23 77.0
e 98 74 96.0
e 98 11 41.0
e 98 272 51.0
e 98 162 83.0
e 98 125 30.0
e 98 222 44.0
e 98 208 15.0
e 98 51 27.0
e 98 207 5.0
e 98 65 33.0
e 98 55 63.0
e 98 142 81.0
e 98 42 66.0
e 98 215 25.0
e 100 134 2.0
e 101 297 71.0
e 101 17 69.0
e 101 294 36.0
e 101 118 23.0
e 101 39 39.0
e 101 83 59.0
e 101 31 46.0
e 101 233 74.0
e 101 22 88.0
e 101 318 23.0
e 101 129 31.0
e 101 1 38.0
e 101 77 44.0
e 101 197 95.0
e 101 68 30.0
e 101 113 99.0
e 101 46 45.0
e 102 125 20.0
e 102 263 19.0
e 102 46 29.0
e 102 287 83.0
e 102 115 58.0
e 102 153 98.0
e 102 177 85.0
e 102 70 44.0
e 102 155 69.0
e 102 27 12.0
e 102 175 90.0
e 102 290 86.0
e 102 132 51.0
e 102 311 47.0
e 102 39 24.0
e 104 53 84.0
e 104 80 62.0
e 104 206 38.0
e 104 290 97.0
e 104 32 97.0
e 104 301 60.0
e 104 12 90.0
e 104 52 5.0
e 104 69 59.0
e 104 192 61.0
e 104 216 15.0
e 104 207 73.0
e 104 22 32.0
e 104 170 23.0
e 104 38 90.0
e 106 244 3.0
e 106 216 4.0
e 107 108 7.0
e 107 305 32.0
e 107 2 7.0
e 113 184 69.0
e 113 66 65.0
e 113 110 83.0
e 113 196 42.0
e 113 210 46.0
e 113 140 16.0
e 113 199 29.0
e 113 290 23.0
e 113 246 75.0
e 113 72 14.0
e 113 27 28.0
e 113 91 26.0
e 113 30 26.0
e 113 197 64.0
e 113 56 10.0
e 113 297 48.0
e 116 47 72.0
e 116 100 2.0
e 116 10 4.0
e 116 58 14.0
e 116 71 13.0
e 119 193 100.0
e 119 152 29.0
e 119 37 93.0
e 119 278 46.0
e 119 295 60.0
e 119 171 13.0
e 119 104 8.0
e 119 84 1.0
e 119 273 89.0
e 119 223 1.0
e 119 48 95.0
e 119 157 10.0
e 119 247 88.0
e 119 178 13.0
e 119 51 3.0
e 119 95 6.0
e 120 287 3.0
e 120 252 97.0
e 120 263 5.0
e 120 157 72.0
e 120 247 33.0
e 120 79 78.0
e 120 110 8.0
e 120 161 73.0
e 120 291 83.0
e 120 228 59.0
e 120 68 51.0
e 120 201 20.0
e 120 10 74.0
e 120 88 73.0
e 120 93 59.0
e 120 188 80.0
e 120 36 41.0
e 121 44 70.0
e 121 53 2.0
e 121 93 36.0
e 121 185 70.0
e 121 223 69.0
e 121 58 99.0
e 121 168 52.0
e 121 252 76.0
e 121 283 98.0
e 121 202 66.0
e 121 260 84.0
e 121 213 72.0
e 121 124 74.0
e 121 163 73.0
e 121 0 75.0
e 123 233 1.0
e 123 74 7.0
e 124 210 60.0
e 124 39 88.0
e 124 176 3.0
e 124 143 40.0
e 124 310 81.0
e 124 87 4.0
e 124 71 77.0
e 124 66 95.0
e 124 244 97.0
e 124 85 41.0
e 124 5 29.0
e 124 221 17.0
e 124 245 77.0
e 124 178 8.0
e 124 20 4.0
e 124 33 78.0
e 126 249 57.0
e 127 72 1.0
e 128 58 20.0
e 131 274 9.0
e 131 157 25.0
e 131 0 50.0
e 131 69 1.0
e 131 108 5.0
e 131 207 34.0
e 131 1 2.0
e 131 126 29.0
e 131 48 31.0
e 131 237 93.0
e 131 199 46.0
e 131 217 23.0
e 131 193 57.0
e 131 303 91.0
e 131 250 3.0
e 132 64 5.0
e 132 35 20.0
e 132 247 13.0
e 132 88 12.0
e 133 130 3.0
e 133 296 55.0
e 139 244 5.0
e 139 224 3.0
e 141 279 1.0
e 144 182 82.0
e 144 56 79.0
e 144 97 51.0
e 144 172 67.0
e 144 129 7.0
e 144 94 18.0
e 144 131 27.0
e 144 9 28.0
e 144 183 78.0
e 144 57 71.0
e 144 255 12.0
e 144 112 41.0
e 144 208 95.0
e 144 111 95.0
e 144 106 80.0
e 144 201 1.0
e 145 40 2.0
e 145 209 8.0
e 145 136 1.0
e 146 203 1.0
e 146 144 21.0
e 146 256 92.0
e 146 198 7.0
e 146 287 41.0
e 146 190 21.0
e 146 195 98.0
e 146 150 46.0
e 146 67 52.0
e 146 128 21.0
e 146 199 76.0
e 146 95 77.0
e 146 230 13.0
e 147 106 5.0
e 147 67 91.0
e 147 62 2.0
e 147 152 54.0
e 150 108 19.0
e 150 178 41.0
e 151 213 45.0
e 151 69 23.0
e 151 228 93.0
e 151 295 31.0
e 151 314 58.0
e 151 200 28.0
e 151 155 40.0
e 151 113 53.0
e 151 139 44.0
e 151 225 37.0
e 151 255 3.0
e 151 318 50.0
e 151 242 37.0
e 151 189 92.0
e 151 210 12.0
e 151 60 74.0
e 152 310 52.0
e 152 144 99.0
e 152 7 52.0
e 152 4 80.0
e 152 166 81.0
e 152 235 47.0
e 152 237 45.0
e 152 31 12.0
e 152 6 64.0
e 152 59 92.0
e 152 67 5.0
e 152 60 7.0
e 152 289 4.0
e 152 281 3.0
e 152 297 89.0
e 154 60 5.0
e 156 317 19.0
e 156 138 1.0
e 160 11 63.0
e 160 48 66.0
e 160 27 16.0
e 160 146 26.0
e 160 304 69.0
e 160 280 51.0
e 160 91 58.0
e 160 275 100.0
e 160 298 59.0
e 160 198 43.0
e 160 301 46.0
e 160 211 3.0
e 160 52 82.0
e 160 100 38.0
e 161 7 69.0
e 161 304 49.0
e 161 56 45.0
e 161 175 60.0
e 161 49 84.0
e 161 316 22.0
e 161 204 26.0
e 161 78 43.0
e 161 155 1.0
e 161 13 85.0
e 161 116 79.0
e 161 269 63.0
e 161 81 29.0
e 162 164 8.0
e 165 291 1.0
e 166 252 88.0
e 166 119 81.0
e 166 190 4.0
e 166 31 36.0
e 166 75 27.0
e 166 91 40.0
e 166 167 77.0
e 166 144 68.0
e 166 95 32.0
e 166 162 48.0
e 166 245 29.0
e 166 113 47.0
e 166 265 12.0
e 166 211 23.0
e 166 243 18.0
e 166 285 24.0
e 167 176 61.0
e 168 104 31.0
e 168 40 1.0
e 170 139 79.0
e 170 113 11.0
e 170 29 3.0
e 170 130 86.0
e 170 230 71.0
e 170 228 8.0
e 170 166 77.0
e 170 94 33.0
e 170 185 93.0
e 170 165 9.0
e 170 173 15.0
e 170 253 17.0
e 170 152 92.0
e 170 11 19.0
e 171 128 69.0
e 171 131 45.0
e 171 32 15.0
e 171 41 74.0
e 171 244 55.0
e 171 248 62.0
e 171 77 25.0
e 171 207 4.0
e 171 61 83.0
e 171 40 80.0
e 171 275 26.0
e 171 13 19.0
e 171 172 34.0
e 171 78 23.0
e 171 301 27.0
e 171 224 62.0
e 173 295 2.0
e 176 185 45.0
e 176 42 63.0
e 176 73 11.0
e 176 54 46.0
e 176 117 35.0
e 176 93 29.0
e 176 183 60.0
e 176 43 58.0
e 176 72 93.0
e 176 240 3.0
e 176 302 88.0
e 178 13 70.0
e 178 122 75.0
e 178 193 6.0
e 178 107 18.0
e 178 303 2.0
e 178 126 25.0
e 178 136 70.0
e 178 240 51.0
e 178 231 1.0
e 178 293 58.0
e 178 73 100.0
e 178 176 65.0
e 178 84 26.0
e 178 50 40.0
e 179 57 35.0
e 179 309 100.0
e 179 26 47.0
e 179 203 11.0
e 179 310 26.0
e 179 283 11.0
e 179 260 9.0
e 179 134 25.0
e 179 282 3.0
e 179 278 85.0
e 179 174 89.0
e 179 166 69.0
e 179 33 39.0
e 179 248 89.0
e 179 207 96.0
e 179 49 19.0
e 179 76 86.0
e 180 18 99.0
e 180 230 16.0
e 180 236 87.0
e 180 138 81.0
e 180 105 87.0
e 180 217 65.0
e 180 63 69.0
e 180 231 79.0
e 180 52 29.0
e 180 288 36.0
e 180 103 31.0
e 180 242 74.0
e 180 122 53.0
e 180 150 22.0
e 180 290 81.0
e 180 30 32.0
e 180 119 68.0
e 181 180 51.0
e 181 18 92.0
e 181 70 43.0
e 181 42 71.0
e 181 138 85.0
e 181 234 21.0
e 181 30 35.0
e 181 237 21.0
e 181 137 84.0
e 181 212 79.0
e 181 38 22.0
e 181 275 56.0
e 181 236 56.0
e 181 63 61.0
e 183 219 23.0
e 183 18 59.0
e 183 197 6.0
e 183 19 2.0
e 183 74 37.0
e 183 220 10.0
e 183 179 14.0
e 183 240 59.0
e 183 236 63.0
e 183 184 94.0
e 183 133 50.0
e 183 20 78.0
e 185 79 25.0
e 185 292 28.0
e 185 70 86.0
e 185 134 8.0
e 185 177 37.0
e 185 45 42.0
e 185 19 93.0
e 185 106 22.0
e 185 217 46.0
e 185 258 99.0
e 185 291 18.0
e 185 50 62.0
e 185 107 87.0
e 185 21 81.0
e 190 122 16.0
e 190 245 11.0
e 190 21 35.0
e 190 306 23.0
e 190 256 79.0
e 190 154 15.0
e 190 41 52.0
e 190 203 95.0
e 190 107 88.0
e 190 94 12.0
e 190 130 57.0
e 190 227 99.0
e 190 1 92.0
e 190 213 93.0
e 194 212 78.0
e 194 24 81.0
e 194 37 14.0
e 194 176 86.0
e 194 288 47.0
e 194 169 83.0
e 194 189 86.0
e 194 111 58.0
e 194 21 100.0
e 194 263 5.0
e 194 132 45.0
e 194 54 18.0
e 194 211 75.0
e 194 171 96.0
e 194 269 73.0
e 201 189 18.0
e 201 114 56.0
e 201 77 83.0
e 201 206 67.0
e 201 183 58.0
e 201 126 70.0
e 201 25 22.0
e 201 173 92.0
e 201 88 34.0
e 201 139 84.0
e 201 34 13.0
e 201 140 32.0
e 201 211 90.0
e 201 154 99.0
e 202 187 19.0
e 202 256 18.0
e 211 145 48.0
e 211 279 39.0
e 211 288 17.0
e 211 191 64.0
e 211 34 37.0
e 211 193 7.0
e 211 59 48.0
e 211 245 35.0
e 211 153 54.0
e 211 37 66.0
e 212 277 8.0
e 212 26 62.0
e 212 43 84.0
e 212 35 26.0
e 212 285 51.0
e 212 103 16.0
e 212 119 16.0
e 212 264 73.0
e 212 187 80.0
e 212 44 99.0
e 212 2 88.0
e 212 296 83.0
e 212 211 11.0
e 218 136 5.0
e 218 98 81.0
e 219 145 56.0
e 219 114 28.0
e 219 185 75.0
e 219 242 11.0
e 219 237 60.0
e 219 239 37.0
e 219 266 57.0
e 219 221 45.0
e 219 286 32.0
e 219 36 15.0
e 219 222 62.0
e 219 189 51.0
e 219 146 14.0
e 221 318 96.0
e 221 36 19.0
e 221 127 6.0
e 221 41 93.0
e 221 204 93.0
e 221 145 77.0
e 221 99 46.0
e 221 176 18.0
e 221 298 74.0
e 221 43 81.0
e 221 295 44.0
e 221 258 7.0
e 221 198 6.0
e 225 59 14.0
e 225 258 10.0
e 225 101 38.0
e 225 285 16.0
e 226 61 43.0
e 226 76 23.0
e 229 264 82.0
e 229 61 79.0
e 229 190 95.0
e 229 120 2.0
e 229 151 78.0
e 229 82 2.0
e 229 304 38.0
e 229 218 86.0
e 229 248 84.0
e 229 305 13.0
e 229 315 34.0
e 229 152 68.0
e 229 97 87.0
e 229 195 23.0
e 232 305 88.0
e 232 199 37.0
e 232 242 16.0
e 232 259 54.0
e 232 62 98.0
e 232 308 57.0
e 232 64 40.0
e 232 159 38.0
e 232 121 7.0
e 232 266 76.0
e 232 204 10.0
e 232 229 35.0
e 232 76 28.0
e 232 78 100.0
e 232 190 39.0
e 232 200 95.0
e 234 100 83.0
e 234 90 22.0
e 234 141 59.0
e 234 266 64.0
e 234 79 96.0
e 234 123 9.0
e 234 305 64.0
e 234 92 12.0
e 234 62 9.0
e 234 225 23.0
e 234 299 93.0
e 234 64 60.0
e 234 276 93.0
e 234 80 95.0
e 234 142 54.0
e 237 80 63.0
e 237 90 81.0
e 237 101 56.0
e 237 264 50.0
e 237 171 72.0
e 237 81 64.0
e 237 116 95.0
e 237 97 8.0
e 237 82 2.0
e 237 268 61.0
e 237 140 91.0
e 237 240 43.0
e 239 140 5.0
e 243 98 59.0
e 243 235 75.0
e 243 109 90.0
e 243 260 73.0
e 243 128 99.0
e 243 228 45.0
e 243 313 32.0
e 243 81 85.0
e 243 248 75.0
e 243 104 59.0
e 243 120 76.0
e 243 170 93.0
e 243 299 89.0
e 243 133 81.0
e 243 82 12.0
e 245 141 87.0
e 245 83 15.0
e 245 212 81.0
e 245 121 92.0
e 245 85 11.0
e 245 90 67.0
e 245 131 20.0
e 245 276 98.0
e 245 219 73.0
e 245 152 75.0
e 245 142 95.0
e 245 101 79.0
e 248 141 64.0
e 248 83 17.0
e 248 151 74.0
e 248 132 35.0
e 248 85 23.0
e 248 98 6.0
e 248 137 25.0
e 248 99 59.0
e 248 251 82.0
e 248 286 7.0
e 248 102 90.0
e 248 116 80.0
e 249 292 86.0
e 249 284 85.0
e 249 241 51.0
e 249 236 10.0
e 249 102 81.0
e 249 186 58.0
e 249 171 94.0
e 249 109 31.0
e 249 174 89.0
e 249 153 27.0
e 249 111 33.0
e 249 159 59.0
e 249 266 82.0
e 249 117 22.0
e 249 203 59.0
e 250 172 3.0
e 250 256 2.0
e 251 102 28.0
e 251 237 25.0
e 251 117 93.0
e 251 118 100.0
e 251 120 10.0
e 251 305 48.0
e 251 292 48.0
e 251 238 89.0
e 251 186 48.0
e 251 180 9.0
e 251 316 89.0
e 251 121 89.0
e 251 123 21.0
e 251 160 18.0
e 251 199 37.0
e 251 148 13.0
e 252 0 64.0
e 252 132 25.0
e 252 118 73.0
e 252 123 52.0
e 252 173 33.0
e 252 124 75.0
e 252 146 35.0
e 252 212 71.0
e 252 160 3.0
e 252 179 60.0
e 252 127 83.0
e 252 204 56.0
e 256 177 6.0
e 259 143 48.0
e 259 127 56.0
e 259 156 11.0
e 259 191 97.0
e 259 158 19.0
e 259 186 66.0
e 259 297 49.0
e 259 314 95.0
e 259 118 27.0
e 259 151 5.0
e 259 124 88.0
e 259 133 47.0
e 259 137 85.0
e 259 292 73.0
e 259 147 33.0
e 264 313 14.0
e 264 124 1.0
e 264 241 29.0
e 264 211 96.0
e 264 200 40.0
e 264 267 35.0
e 264 277 4.0
e 264 305 59.0
e 264 265 17.0
e 264 259 4.0
e 267 233 82.0
e 267 315 95.0
e 267 153 1.0
e 267 160 60.0
e 267 143 80.0
e 267 147 90.0
e 267 269 2.0
e 267 162 23.0
e 267 148 100.0
e 267 183 4.0
e 267 221 33.0
e 267 149 76.0
e 267 217 41.0
e 267 271 53.0
e 273 143 4.0
e 284 190 1.0
e 284 147 13.0
e 284 183 26.0
e 284 179 23.0
e 284 148 91.0
e 284 149 40.0
e 284 222 63.0
e 284 239 77.0
e 284 150 56.0
e 284 299 65.0
e 284 154 47.0
e 284 286 7.0
e 284 277 99.0
e 284 178 45.0
e 286 149 46.0
e 286 264 67.0
e 286 150 63.0
e 286 156 96.0
e 286 256 67.0
e 286 168 39.0
e 286 297 66.0
e 286 158 47.0
e 286 194 21.0
e 286 250 15.0
e 286 261 96.0
e 286 201 42.0
e 286 161 48.0
e 286 307 13.0
e 289 277 76.0
e 289 286 69.0
e 289 166 74.0
e 289 156 37.0
e 289 158 68.0
e 289 168 70.0
e 289 161 23.0
e 289 162 33.0
e 289 163 15.0
e 289 272 94.0
e 289 165 66.0
e 289 164 37.0
e 289 280 63.0
e 289 167 21.0
e 289 170 67.0
e 294 161 30.0
e 294 288 87.0
e 294 241 38.0
e 294 163 35.0
e 294 164 41.0
e 294 165 74.0
e 294 167 83.0
e 294 168 3.0
e 294 170 49.0
e 294 243 48.0
e 294 172 96.0
e 294 173 37.0
e 294 174 53.0
e 294 178 21.0
e 294 180 82.0
e 294 244 28.0
e 296 164 75.0
e 296 201 42.0
e 296 167 94.0
e 296 172 38.0
e 296 202 3.0
e 296 178 33.0
e 296 181 88.0
e 296 184 61.0
e 296 185 48.0
e 296 289 58.0
e 296 211 72.0
e 296 191 61.0
e 296 194 33.0
e 296 195 54.0
e 297 248 38.0
e 297 181 13.0
e 297 194 84.0
e 297 312 51.0
e 297 212 25.0
e 297 184 42.0
e 297 185 62.0
e 297 196 94.0
e 297 201 66.0
e 297 202 38.0
e 297 249 89.0
e 297 213 37.0
e 305 181 11.0
e 305 294 28.0
e 305 221 26.0
e 305 184 86.0
e 305 243 65.0
e 305 202 26.0
e 305 260 81.0
e 305 218 35.0
e 305 219 52.0
e 305 222 24.0
e 307 218 5.0
e 308 278 34.0
e 308 237 85.0
e 308 219 28.0
e 308 221 15.0
e 308 294 32.0
e 308 286 29.0
e 308 222 89.0
e 308 223 45.0
e 308 251 7.0
e 308 248 82.0
e 308 279 29.0
e 308 317 84.0
e 308 229 90.0
e 308 224 4.0
e 308 225 66.0
e 309 223 33.0
e 309 243 61.0
e 309 224 38.0
e 309 257 38.0
e 309 245 70.0
e 309 225 39.0
e 309 248 4.0
e 309 289 78.0
e 309 226 15.0
e 309 227 33.0
e 309 229 28.0
e 309 230 58.0
e 309 232 54.0
e 309 267 20.0
e 309 234 42.0
e 311 226 10.0
e 312 256 29.0
e 312 305 28.0
e 312 281 87.0
e 312 226 33.0
e 312 307 32.0
e 312 314 73.0
e 312 227 28.0
e 312 230 65.0
e 312 232 2.0
e 312 234 66.0
e 312 236 74.0
e 312 237 96.0
e 312 239 26.0
e 312 245 86.0
e 313 227 6.0
e 313 232 93.0
e 317 234 31.0
e 317 236 37.0
e 317 253 12.0
e 317 256 97.0
e 317 239 62.0
e 317 245 93.0
e 317 249 32.0
e 317 250 74.0
e 317 251 97.0
e 317 252 90.0
e 317 257 63.0
e 317 307 4.0
e 317 259 26.0
e 318 280 96.0
e 318 249 74.0
e 318 250 82.0
e 318 251 4.0
e 318 252 86.0
e 318 253 81.0
e 318 305 36.0
e 318 259 4.0
e 318 260 3.0
e 318 261 8.0
e 318 264 64.0
e 318 267 99.0
e 318 278 88.0
e 318 268 17.0
e 319 252 98.0
